NAME: tsp_378
COMMENT: Random TSP instance
TYPE: TSP
DIMENSION: 50
EDGE_WEIGHT_TYPE: EUC_2D
NODE_COORD_SECTION
1 644 683
2 450 395
3 512 982
4 782 297
5 535 124
6 335 687
7 332 8
8 542 481
9 37 978
10 382 506
11 360 738
12 157 420
13 354 240
14 44 285
15 563 772
16 559 208
17 650 543
18 736 312
19 561 733
20 860 695
21 626 458
22 810 287
23 512 619
24 263 127
25 968 979
26 922 522
27 524 555
28 343 602
29 963 184
30 609 476
31 388 740
32 842 739
33 677 591
34 166 848
35 65 232
36 740 198
37 885 20
38 219 886
39 584 145
40 229 728
41 99 266
42 943 594
43 239 210
44 886 148
45 863 738
46 445 566
47 541 0
48 986 199
49 646 266
50 463 437
